NAME : single
TYPE : ATSP
DIMENSION : 6
EDGE_WEIGHT_TYPE : EXPLICIT
EDGE_WEIGHT_FORMAT : FULL_MATRIX
EDGE_WEIGHT_SECTION
0 1150 1241 199 138 0 
199815 0 90 963 1050 1150 
199797 90 0 1054 1141 1241 
199754 963 1054 0 112 199 
199745 1050 1141 112 0 138 
199716 1150 1241 199 138 0 
EOF